
Gurobi 11.0.3 (linux64) logging started Mon 18 Nov 2024 10:56:59 PM CST

Set parameter LogFile to value "/home/dlcole3/graph_abstraction/hierarchical_graphs/git_storage/CS1/HP_low_reserves/gurobi_logs/serial/logfile_ST19_7.log"

Gurobi 11.0.3 (linux64) logging started Mon 18 Nov 2024 10:59:02 PM CST

Set parameter LogFile to value "/home/dlcole3/graph_abstraction/hierarchical_graphs/git_storage/CS1/HP_low_reserves/gurobi_logs/serial/logfile_ST19_7.log"
Gurobi Optimizer version 11.0.3 build v11.0.3rc0 (linux64 - "Ubuntu 18.04.3 LTS")

CPU model: Intel(R) Xeon(R) CPU E5-2698 v4 @ 2.20GHz, instruction set [SSE2|AVX|AVX2]
Thread count: 40 physical cores, 80 logical processors, using up to 20 threads

Optimize a model with 29168 rows, 50688 columns and 136175 nonzeros
Model fingerprint: 0xa6b8762d
Variable types: 46944 continuous, 3744 integer (3744 binary)
Coefficient statistics:
  Matrix range     [6e-01, 2e+04]
  Objective range  [2e+00, 2e+04]
  Bounds range     [5e-02, 2e+05]
  RHS range        [5e-02, 7e+03]
Presolve removed 13173 rows and 38051 columns
Presolve time: 0.35s
Presolved: 15995 rows, 12637 columns, 67559 nonzeros
Variable types: 9585 continuous, 3052 integer (3052 binary)
Found heuristic solution: objective 237496.17232

Root relaxation: objective 8.528393e+04, 8614 iterations, 0.33 seconds (0.24 work units)

    Nodes    |    Current Node    |     Objective Bounds      |     Work
 Expl Unexpl |  Obj  Depth IntInf | Incumbent    BestBd   Gap | It/Node Time

     0     0 85283.9350    0    9 237496.172 85283.9350  64.1%     -    1s
H    0     0                    100088.07472 85283.9350  14.8%     -    1s
H    0     0                    100088.07470 85283.9350  14.8%     -    1s
     0     0 85283.9350    0    9 100088.075 85283.9350  14.8%     -    1s
     0     2 85283.9350    0    9 100088.075 85283.9350  14.8%     -    1s
H   31    52                    100088.07462 85344.7672  14.7%   4.8    2s
H   32    52                    86341.567809 85344.7672  1.15%   5.0    2s
H   37    52                    85993.285003 85344.7833  0.75%   4.5    2s
H  212   145                    85949.208527 85365.9819  0.68%   4.3    2s
H  233   159                    85839.844405 85365.9819  0.55%   4.3    2s
H  266   159                    85776.325724 85365.9819  0.48%   4.1    2s
H  272   141                    85645.705451 85365.9819  0.33%   4.1    2s
H  346   102                    85626.689523 85365.9819  0.30%   3.7    2s

Explored 461 nodes (10090 simplex iterations) in 2.77 seconds (1.82 work units)
Thread count was 20 (of 80 available processors)

Solution count 10: 85626.7 85626.7 85645.7 ... 237496

Optimal solution found (tolerance 3.00e-03)
Best objective 8.562668952247e+04, best bound 8.546715802955e+04, gap 0.1863%

User-callback calls 2476, time in user-callback 0.00 sec
